feasible solution found by trivial heuristic after 0.1 seconds, objective value 0.000000e+00
presolving:
(round 1, fast)       4330 del vars, 4053 del conss, 0 add conss, 418 chg bounds, 0 chg sides, 0 chg coeffs, 0 upgd conss, 0 impls, 16750 clqs
(round 2, fast)       6579 del vars, 7688 del conss, 0 add conss, 418 chg bounds, 1387 chg sides, 0 chg coeffs, 0 upgd conss, 0 impls, 16750 clqs
   (0.3s) running MILP presolver
   (1.0s) MILP presolver (2 rounds): 0 aggregations, 3635 fixings, 0 bound changes
(round 3, medium)     10214 del vars, 7688 del conss, 0 add conss, 418 chg bounds, 1387 chg sides, 0 chg coeffs, 0 upgd conss, 0 impls, 16750 clqs
(round 4, fast)       10214 del vars, 11323 del conss, 0 add conss, 418 chg bounds, 1387 chg sides, 0 chg coeffs, 0 upgd conss, 0 impls, 18137 clqs
(round 5, exhaustive) 10214 del vars, 13571 del conss, 0 add conss, 418 chg bounds, 1387 chg sides, 0 chg coeffs, 0 upgd conss, 0 impls, 18137 clqs
(round 6, exhaustive) 10214 del vars, 13571 del conss, 0 add conss, 418 chg bounds, 1387 chg sides, 0 chg coeffs, 19524 upgd conss, 0 impls, 18137 clqs
(round 7, fast)       10433 del vars, 13571 del conss, 0 add conss, 418 chg bounds, 1387 chg sides, 0 chg coeffs, 19524 upgd conss, 0 impls, 18137 clqs
(round 8, fast)       10433 del vars, 13571 del conss, 0 add conss, 418 chg bounds, 1387 chg sides, 219 chg coeffs, 19524 upgd conss, 0 impls, 18137 clqs
   (1.3s) probing: 51/1307 (3.9%) - 0 fixings, 0 aggregations, 0 implications, 0 bound changes
   (1.3s) probing aborted: 50/50 successive totally useless probings
   (1.5s) symmetry computation started: requiring (bin +, int -, cont +), (fixed: bin -, int +, cont -)
   (1.5s) no symmetry present
presolving (9 rounds: 9 fast, 4 medium, 3 exhaustive):
 10433 deleted vars, 13571 deleted constraints, 0 added constraints, 418 tightened bounds, 0 added holes, 1387 changed sides, 219 changed coefficients
 0 implications, 18137 cliques
presolved problem has 1307 variables (1307 bin, 0 int, 0 impl, 0 cont) and 19524 constraints
  18137 constraints of type <setppc>
   1387 constraints of type <logicor>
Presolving Time: 1.44

 time | node  | left  |LP iter|LP it/n|mem/heur|mdpt |vars |cons |rows |cuts |sepa|confs|strbr|  dualbound   | primalbound  |  gap   | compl. 
t 1.6s|     1 |     0 |     0 |     - | trivial|   0 |1307 |  19k|   0 |   0 |  0 |   0 |   0 | 7.039441e+03 | 0.000000e+00 |    Inf | unknown
p 1.7s|     1 |     0 |     0 |     - |   locks|   0 |1307 |  19k|  19k|   0 |  0 |   0 |   0 | 7.039441e+03 | 5.430489e+02 |1196.28%| unknown
i 1.7s|     1 |     0 |     0 |     - |  oneopt|   0 |1307 |  19k|  19k|   0 |  0 |   0 |   0 | 7.039441e+03 | 5.550483e+02 |1168.26%| unknown
  2.7s|     1 |     0 |  1235 |     - |   132M |   0 |1307 |  19k|  19k|   0 |  0 |   0 |   0 | 1.206661e+03 | 5.550483e+02 | 117.40%| unknown
  3.0s|     1 |     0 |  1396 |     - |   137M |   0 |1307 |  19k|  19k|   1 |  1 |   0 |   0 | 1.201494e+03 | 5.550483e+02 | 116.47%| unknown
  3.2s|     1 |     0 |  1577 |     - |   140M |   0 |1307 |  19k|  19k|   2 |  2 |   0 |   0 | 1.198065e+03 | 5.550483e+02 | 115.85%| unknown
  3.4s|     1 |     0 |  1775 |     - |   143M |   0 |1307 |  19k|  19k|   3 |  3 |   0 |   0 | 1.196446e+03 | 5.550483e+02 | 115.56%| unknown
  3.6s|     1 |     0 |  1895 |     - |   145M |   0 |1307 |  19k|  19k|   4 |  4 |   0 |   0 | 1.195870e+03 | 5.550483e+02 | 115.45%| unknown
  3.9s|     1 |     0 |  2071 |     - |   148M |   0 |1307 |  19k|  19k|   5 |  5 |   0 |   0 | 1.195299e+03 | 5.550483e+02 | 115.35%| unknown
  4.1s|     1 |     0 |  2213 |     - |   152M |   0 |1307 |  19k|  19k|   6 |  6 |   0 |   0 | 1.195117e+03 | 5.550483e+02 | 115.32%| unknown
  4.2s|     1 |     0 |  2332 |     - |   154M |   0 |1307 |  19k|  19k|   7 |  7 |   0 |   0 | 1.195008e+03 | 5.550483e+02 | 115.30%| unknown
  4.5s|     1 |     0 |  2491 |     - |   157M |   0 |1307 |  19k|  19k|   8 |  8 |   0 |   0 | 1.194880e+03 | 5.550483e+02 | 115.27%| unknown
  4.7s|     1 |     0 |  2674 |     - |   159M |   0 |1307 |  19k|  19k|   9 |  9 |   0 |   0 | 1.194764e+03 | 5.550483e+02 | 115.25%| unknown
  4.9s|     1 |     0 |  2817 |     - |   163M |   0 |1307 |  19k|  19k|  10 | 10 |   0 |   0 | 1.194680e+03 | 5.550483e+02 | 115.24%| unknown
  5.1s|     1 |     0 |  2956 |     - |   165M |   0 |1307 |  19k|  19k|  11 | 11 |   0 |   0 | 1.194624e+03 | 5.550483e+02 | 115.23%| unknown
 time | node  | left  |LP iter|LP it/n|mem/heur|mdpt |vars |cons |rows |cuts |sepa|confs|strbr|  dualbound   | primalbound  |  gap   | compl. 
  5.1s|     1 |     0 |  3006 |     - |   167M |   0 |1307 |  19k|  19k|  12 | 12 |   0 |   0 | 1.194610e+03 | 5.550483e+02 | 115.23%| unknown
  5.2s|     1 |     0 |  3057 |     - |   169M |   0 |1307 |  19k|  19k|  13 | 13 |   0 |   0 | 1.194600e+03 | 5.550483e+02 | 115.22%| unknown
  5.3s|     1 |     0 |  3116 |     - |   171M |   0 |1307 |  19k|  19k|  14 | 14 |   0 |   0 | 1.194576e+03 | 5.550483e+02 | 115.22%| unknown
  5.5s|     1 |     0 |  3189 |     - |   173M |   0 |1307 |  19k|  19k|  15 | 15 |   0 |   0 | 1.194553e+03 | 5.550483e+02 | 115.22%| unknown
  5.6s|     1 |     0 |  3281 |     - |   175M |   0 |1307 |  19k|  19k|  17 | 16 |   0 |   0 | 1.194501e+03 | 5.550483e+02 | 115.21%| unknown
  5.7s|     1 |     0 |  3298 |     - |   178M |   0 |1307 |  19k|  19k|  18 | 17 |   0 |   0 | 1.194496e+03 | 5.550483e+02 | 115.21%| unknown
  5.8s|     1 |     0 |  3331 |     - |   180M |   0 |1307 |  19k|  19k|  19 | 18 |   0 |   0 | 1.194486e+03 | 5.550483e+02 | 115.20%| unknown
d 6.5s|     1 |     0 |  4269 |     - |farkasdi|   0 |1307 |  19k|  19k|   0 | 18 |   0 |   0 | 1.194486e+03 | 8.337303e+02 |  43.27%| unknown
L23.7s|     1 |     0 |  4269 |     - |    rens|   0 |1307 |  19k|  19k|  19 | 18 |   0 |   0 | 1.194486e+03 | 8.882744e+02 |  34.47%| unknown
 23.9s|     1 |     0 |  4269 |     - |   180M |   0 |1307 |  19k|  19k|  19 | 18 |   0 |   0 | 1.194486e+03 | 8.882744e+02 |  34.47%| unknown
 24.0s|     1 |     0 |  4329 |     - |   182M |   0 |1307 |  19k|  19k|  20 | 19 |   0 |   0 | 1.194458e+03 | 8.882744e+02 |  34.47%| unknown
 40.7s|     1 |     2 |  4329 |     - |   183M |   0 |1307 |  19k|  19k|  20 | 20 |   0 |  23 | 1.181040e+03 | 8.882744e+02 |  32.96%| unknown

SCIP Status        : problem is solved [optimal solution found]
Solving Time (sec) : 104.63
Solving Nodes      : 7
Primal Bound       : +8.88274378489186e+02 (59 solutions)
Dual Bound         : +8.88274378489186e+02
Gap                : 0.00 %
Solve Status: optimal
Solve Time: 104.64 seconds
